Route #1: 51 33 73 1 63 16 49 23 56 41 43 42 64 22 62 2 6
Route #2: 67 34 46 8 19 54 13 57 27 52 45 4 75
Route #3: 17 40 32 44 3 24 18 50 25 55 31 9 39 72 12
Route #4: 7 35 53 14 59 66 11 65 38 10 58 26
Route #5: 29 48 5 15 37 20 70 60 71 69 36 47 21 61 28 74 30 68
cost 647
